23 23
19
3 3 17 20
3 4 20 19
3 5 7 18
3 6 4 17
3 7 7 3
3 8 7 10
3 9 20 10
3 10 20 0
3 11 10 0
3 12 14 11
3 14 4 3
3 20 17 0
4 3 6 0
4 4 0 13
4 6 0 17
4 10 0 3
4 11 13 0
4 12 10 11
6 3 0 0
% time elapsed: 58.72 s
% time elapsed: 58.72 s
%%%mzn-stat: initTime=0.000345
%%%mzn-stat: solveTime=58.6287
%%%mzn-stat: solutions=59
%%%mzn-stat: variables=39
%%%mzn-stat: propagators=24
%%%mzn-stat: propagations=42148303
%%%mzn-stat: nodes=10019428
%%%mzn-stat: failures=5006914
%%%mzn-stat: restarts=374
%%%mzn-stat: peakDepth=53
%%%mzn-stat-end
